LibMLKEM/why3-cvc5/mlkem.adb_1767_33_loop_invariant_init_1.smt2
;; produced by cvc5.drv ;;
(set-logic ALL)
(set-info :smt-lib-version 2.6)
;;; generated by SMT-LIB2 driver
;;; SMT-LIB2 driver: bit-vectors, common part
;;; SMT-LIB2: integer arithmetic
;; "pow2"
(declare-fun pow2 (Int) Int)

(declare-const two_power_size_minus_one Int)

;; "two_power_size_minus_one_val"
(assert (= two_power_size_minus_one (pow2 (- 8 1))))

;; "min"
(define-fun min ((x Int) (y Int)) Int
  (ite (<= x y) x y))

;; "max"
(define-fun max ((x Int) (y Int)) Int
  (ite (<= x y) y x))

;; "Min_r"
(assert (forall ((x Int) (y Int)) (=> (<= y x) (= (min x y) y))))

;; "Max_l"
(assert (forall ((x Int) (y Int)) (=> (<= y x) (= (max x y) x))))

;; "Min_comm"
(assert (forall ((x Int) (y Int)) (= (min x y) (min y x))))

;; "Max_comm"
(assert (forall ((x Int) (y Int)) (= (max x y) (max y x))))

;; "Min_assoc"
(assert
  (forall ((x Int) (y Int) (z Int)) (= (min (min x y) z) (min x (min y z)))))

;; "Max_assoc"
(assert
  (forall ((x Int) (y Int) (z Int)) (= (max (max x y) z) (max x (max y z)))))

(declare-sort byte 0)

;; "to_rep"
(declare-fun to_rep (byte) (_ BitVec 8))

;; "of_rep"
(declare-fun of_rep ((_ BitVec 8)) byte)

;; "inversion_axiom"
(assert
  (forall ((x byte)) (! (= (of_rep (to_rep x)) x) :pattern ((to_rep x)) )))

;; "range_axiom"
(assert true)

;; "coerce_axiom"
(assert
  (forall ((x (_ BitVec 8)))
    (! (= (to_rep (of_rep x)) x) :pattern ((to_rep (of_rep x))) )))

(declare-sort map1 0)

;; "has_bounds"
(declare-fun has_bounds (map1
  Int
  Int) Bool)

(declare-const two_power_size_minus_one1 Int)

;; "two_power_size_minus_one_val"
(assert (= two_power_size_minus_one1 (pow2 (- 16 1))))

(declare-sort t 0)

;; "in_range"
(define-fun in_range ((x (_ BitVec 16))) Bool
  (and (bvule #x0000 x) (bvule x #x0D00)))

;; "to_rep"
(declare-fun to_rep1 (t) (_ BitVec 16))

;; "of_rep"
(declare-fun of_rep1 ((_ BitVec 16)) t)

;; "inversion_axiom"
(assert
  (forall ((x t)) (! (= (of_rep1 (to_rep1 x)) x) :pattern ((to_rep1 x)) )))

;; "range_axiom"
(assert (forall ((x t)) (! (in_range (to_rep1 x)) :pattern ((to_rep1 x)) )))

;; "coerce_axiom"
(assert
  (forall ((x (_ BitVec 16)))
    (! (let ((y (bvurem x #x0D01)))
         (=> (in_range y) (= (to_rep1 (of_rep1 x)) y))) :pattern ((to_rep1
                                                                    (of_rep1
                                                                    x))) )))

(declare-sort map2 0)

;; "has_bounds"
(declare-fun has_bounds1 (map2
  Int
  Int) Bool)

(declare-const sigma map1)

(declare-sort map3 0)

;; "has_bounds"
(declare-fun has_bounds2 (map3
  Int
  Int) Bool)

;; "get"
(declare-fun get (map3
  Int) map2)

;; "dynamic_invariant"
(define-fun dynamic_invariant ((temp___expr_1075 map3) (temp___is_init_1071 Bool) (temp___skip_constant_1072 Bool) (temp___do_toplevel_1073 Bool) (temp___do_typ_inv_1074 Bool)) Bool
  (and
    (has_bounds2 temp___expr_1075 0 2)
    (forall ((temp___1076 Int))
      (=>
        (and (<= 0 temp___1076) (<= temp___1076 2))
        (has_bounds1 (get temp___expr_1075 temp___1076) 0 255)))))

;; Goal "def'vc"
;; File "mlkem.adb", line 1760, characters 0-0
(assert
  (not
  (forall ((v map3))
    (=>
      (has_bounds sigma 0 31)
      (=>
        (dynamic_invariant v false false true true)
        (forall ((n (_ BitVec 8)))
          (=>
            (= n #x03)
            (forall ((i Int))
              (=>
                (= i 0)
                (=>
                  (= (and (ite (<= 0 i) true false) (ite (<= i 2) true false)) true)
                  (= n (bvadd #x03 ((_ int2bv 8) i)))))))))))))

(check-sat)
